p cnf 79 264
3 1 0
3 -2 0
-1 2 -3 0
6 4 0
6 -5 0
-4 5 -6 0
-8 7 0
-8 -7 0
6 8 -9 0
-6 -8 -9 0
6 -8 9 0
-6 8 9 0
3 -9 -10 0
-3 9 -10 0
3 9 10 0
-3 -9 10 0
-11 1 -12 0
11 -1 -12 0
-11 -1 12 0
11 1 12 0
6 7 -13 0
-6 -7 -13 0
6 -7 13 0
-6 7 13 0
14 13 0
14 5 0
-13 -5 -14 0
-16 15 0
-16 2 0
-15 -2 16 0
-14 -16 -17 0
14 16 -17 0
-14 16 17 0
14 -16 17 0
-19 18 0
-19 -1 0
-18 1 19 0
17 -19 -20 0
-17 19 -20 0
17 19 20 0
-17 -19 20 0
-21 -12 0
-21 -20 0
12 20 21 0
1 -19 -22 0
-1 19 -22 0
1 19 22 0
-1 -19 22 0
-23 -18 0
-23 -2 0
18 2 23 0
23 -2 -24 0
-23 2 -24 0
23 2 24 0
-23 -2 24 0
-25 -22 0
-25 -24 0
22 24 25 0
-2 -18 -26 0
2 18 -26 0
-2 18 26 0
2 -18 26 0
27 -25 0
27 -26 0
25 26 -27 0
28 8 -29 0
-28 -8 -29 0
28 -8 29 0
-28 8 29 0
-30 13 0
-30 -29 0
-13 29 30 0
-31 -27 0
-31 -30 0
27 30 31 0
-32 21 0
-32 -31 0
-21 31 32 0
-33 -10 0
-33 -32 0
10 32 33 0
19 -13 -34 0
-19 13 -34 0
19 13 34 0
-19 -13 34 0
-35 23 0
-35 34 0
-23 -34 35 0
-36 -23 -37 0
36 23 -37 0
-36 23 37 0
36 -23 37 0
7 37 -38 0
-7 -37 -38 0
7 -37 38 0
-7 37 38 0
-28 38 -39 0
28 -38 -39 0
-28 -38 39 0
28 38 39 0
-35 -39 -40 0
35 39 -40 0
-35 39 40 0
35 -39 40 0
-33 -40 -41 0
33 40 -41 0
-33 40 41 0
33 -40 41 0
-23 42 -43 0
23 -42 -43 0
-23 -42 43 0
23 42 43 0
45 43 0
45 -44 0
-43 44 -45 0
-46 41 0
-46 45 0
-41 -45 46 0
-48 15 0
-48 47 0
-15 -47 48 0
49 -26 0
49 48 0
26 -48 -49 0
-50 49 0
-50 -24 0
-49 24 50 0
-51 28 0
-51 -50 0
-28 50 51 0
52 -18 0
52 -15 0
18 15 -52 0
-53 36 0
-53 -52 0
-36 52 53 0
-54 47 0
-54 8 0
-47 -8 54 0
-55 -53 0
-55 54 0
53 -54 55 0
-51 -55 -56 0
51 55 -56 0
-51 55 56 0
51 -55 56 0
29 28 -57 0
-29 -28 -57 0
29 -28 57 0
-29 28 57 0
-14 -57 -58 0
14 57 -58 0
-14 57 58 0
14 -57 58 0
59 -56 0
59 -58 0
56 58 -59 0
61 -60 0
61 -15 0
60 15 -61 0
-62 -43 0
-62 -19 0
43 19 62 0
-63 -57 0
-63 60 0
57 -60 63 0
62 63 -64 0
-62 -63 -64 0
62 -63 64 0
-62 63 64 0
-65 44 0
-65 1 0
-44 -1 65 0
66 14 0
66 23 0
-14 -23 -66 0
-67 -66 0
-67 36 0
66 -36 67 0
65 67 -68 0
-65 -67 -68 0
65 -67 68 0
-65 67 68 0
69 -64 0
69 68 0
64 -68 -69 0
-70 -28 0
-70 -13 0
28 13 70 0
-28 -70 -71 0
28 70 -71 0
-28 70 71 0
28 -70 71 0
-72 69 0
-72 -71 0
-69 71 72 0
-73 18 0
-73 2 0
-18 -2 73 0
74 6 0
74 -73 0
-6 73 -74 0
75 -44 0
75 -74 0
44 74 -75 0
-76 -72 0
-76 75 0
72 -75 76 0
-77 61 0
-77 76 0
-61 -76 77 0
-59 77 -78 0
59 -77 -78 0
-59 -77 78 0
59 77 78 0
46 -78 -79 0
-46 78 -79 0
46 78 79 0
-46 -78 79 0
-47 -46 17 -23 26 0
-1 40 33 14 -78 0
39 -68 0
27 9 -47 62 -10 0
55 -75 64 61 25 0
-58 -54 -42 0
-64 56 -52 -77 0
55 -42 7 -36 3 0
-74 -10 -65 0
-66 -47 0
17 -52 -43 0
-9 -28 -15 26 71 -11 0
-62 -44 -47 0
-11 56 -26 -27 -48 43 0
-68 -1 -64 -70 -58 -41 0
-71 17 -69 -26 9 -15 0
55 -42 0
-7 -47 31 -75 -60 -46 0
-5 41 -23 22 -76 -48 0
-33 17 59 0
-63 -73 -42 57 0
-56 53 0
17 -78 66 -77 0
-14 -59 43 -3 0
-63 35 -29 -10 -49 -16 0
22 77 -27 -4 0
13 -40 52 -10 -8 -20 0
76 -59 40 -58 0
-10 29 0
-48 50 41 -39 0
36 -2 48 0
-14 8 0
-52 39 -29 -26 -44 0
26 74 -69 17 0
-24 -67 -57 -37 -7 0
55 50 2 0
-60 10 5 0
-23 30 32 0
22 50 0
17 -39 29 53 0
72 -37 0
-20 27 48 -11 -17 0
-62 -10 -40 -44 -2 0
-59 -6 -20 0
79 0
